(declare-const x0 Real)
(declare-const x1 Real)
(declare-const x2 Real)
(declare-const x3 Real)
(declare-const x4 Real)
(declare-const x5 Real)
(declare-const x6 Real)
(declare-const x7 Real)
(declare-const x8 Real)
(assert (<= 0.0 x8))

(assert (<= (- 1.0) (- (- (^ x3 2.0)) (^ x2 2.0))))
(assert (<= (- 1.0) (- (- (^ x5 2.0)) (^ x4 2.0))))
(assert (<= (- 1.0) (- (^ x8 2.0))))
(assert (<= (- 1.0) (- (- (^ (- x1 x8) 2.0)) (^ x0 2.0))))
(assert (<= (- 1.0) (- (- (^ (- x1 x5) 2.0)) (^ (- x0 x4) 2.0))))
(assert (<= (- 1.0) (- (- (^ (- x1 x7) 2.0)) (^ (- x0 x6) 2.0))))
(assert (<= (- 1.0) (- (- (^ (- x3 x7) 2.0)) (^ (- x2 x6) 2.0))))
(assert (<= (- 1.0) (- (- (^ (- x3 x5) 2.0)) (^ (- x2 x4) 2.0))))
(assert (<= (- 1.0) (- (- (^ (- x7 x8) 2.0)) (^ x6 2.0))))
(assert (<= 0.0 (- (* x0 x3) (* x1 x2))))
(assert (<= 0.0 (* x2 x8)))
(assert (<= 0.0 (- (* x4 x8))))
(assert (<= 0.0 (- (* x4 x7) (* x5 x6))))

(minimize
	(+ (* (- 0.500000) (* x0 x3)) (* 0.500000 (* x1 x2)) (* (- 0.500000) (* x2 x8)) (* 0.500000 (* x4 x8)) (* (- 0.500000) (* x4 x7)) (* 0.500000 (* x5 x6)))
)
(check-sat)
(get-objectives)
(exit)

